
Gurobi 8.1.1 (win64) logging started 11/24/19 13:23:01

Changed value of parameter LogFile to logs/drand/ip/drand-10-075-0.log
   Prev: gurobi.log  Default: 
Changed value of parameter LogToConsole to 0
   Prev: 1  Min: 0  Max: 1  Default: 1
Changed value of parameter TimeLimit to 3600.0
   Prev: 1e+100  Min: 0.0  Max: 1e+100  Default: 1e+100
Optimize a model with 1230 rows, 572 columns and 4585 nonzeros
Variable types: 0 continuous, 572 integer (561 binary)
Coefficient statistics:
  Matrix range     [1e+00, 4e+02]
  Objective range  [1e+00, 1e+00]
  Bounds range     [1e+00, 1e+00]
  RHS range        [1e+00, 5e+02]
Presolve removed 3 rows and 3 columns
Presolve time: 0.02s
Presolved: 1227 rows, 569 columns, 4576 nonzeros
Variable types: 0 continuous, 569 integer (558 binary)

Root relaxation: objective 4.076923e+00, 427 iterations, 0.01 seconds

    Nodes    |    Current Node    |     Objective Bounds      |     Work
 Expl Unexpl |  Obj  Depth IntInf | Incumbent    BestBd   Gap | It/Node Time

     0     0    4.07692    0   74          -    4.07692      -     -    0s
H    0     0                      11.0000000    4.07692  62.9%     -    0s
H    0     0                      10.0000000    4.07692  59.2%     -    0s
     0     0    5.00000    0   14   10.00000    5.00000  50.0%     -    0s
     0     0    5.00000    0    7   10.00000    5.00000  50.0%     -    0s
     0     0    5.00000    0   34   10.00000    5.00000  50.0%     -    0s
H    0     0                       7.0000000    5.00000  28.6%     -    0s
     0     0    5.00000    0   34    7.00000    5.00000  28.6%     -    0s
     0     0    5.00000    0    7    7.00000    5.00000  28.6%     -    0s
     0     0    5.00000    0    8    7.00000    5.00000  28.6%     -    0s
     0     0    5.00000    0   40    7.00000    5.00000  28.6%     -    0s
     0     0    5.00000    0   40    7.00000    5.00000  28.6%     -    0s
     0     0    5.00000    0   16    7.00000    5.00000  28.6%     -    0s
     0     0    5.00000    0   15    7.00000    5.00000  28.6%     -    0s
     0     0    5.00000    0    9    7.00000    5.00000  28.6%     -    0s
     0     0    5.00000    0   27    7.00000    5.00000  28.6%     -    0s
     0     0    5.00000    0   12    7.00000    5.00000  28.6%     -    0s
     0     0    5.00000    0   12    7.00000    5.00000  28.6%     -    0s
     0     2    5.00000    0   12    7.00000    5.00000  28.6%     -    0s
 21243 11629    5.00635   42   18    7.00000    5.00000  28.6%   6.6    5s
 77322 31098    6.00000   45   14    7.00000    6.00000  14.3%   6.1   10s
 138258 29248    6.00000   40   12    7.00000    6.00000  14.3%   5.6   15s
 194796 27993 infeasible   58         7.00000    6.00000  14.3%   5.5   20s
 252147 26817    6.00000   79   14    7.00000    6.00000  14.3%   5.4   25s
 307631 25599    6.00000   83   13    7.00000    6.00000  14.3%   5.4   30s
 358907 25118 infeasible   38         7.00000    6.00000  14.3%   5.5   35s
 413259 24423 infeasible   78         7.00000    6.00000  14.3%   5.5   40s
 471814 22308    6.00000   75   12    7.00000    6.00000  14.3%   5.4   45s
 529352 20251    6.00000   81   12    7.00000    6.00000  14.3%   5.3   50s
 588252 20021 infeasible   71         7.00000    6.00000  14.3%   5.3   55s
 643746 18020 infeasible   70         7.00000    6.00000  14.3%   5.3   60s
 697930 15997    6.00000   40   16    7.00000    6.00000  14.3%   5.3   65s
 754770 13883 infeasible   68         7.00000    6.00000  14.3%   5.3   70s
 810264 12245    6.00000   67   19    7.00000    6.00000  14.3%   5.3   75s
 867706  9959    6.00000   65   11    7.00000    6.00000  14.3%   5.3   80s
 916394 10042    6.00000   80   14    7.00000    6.00000  14.3%   5.3   85s
 961934  9831 infeasible   66         7.00000    6.00000  14.3%   5.4   90s
 1015089  7739 infeasible   52         7.00000    6.00000  14.3%   5.4   95s
 1068778  6687    6.00000   67   14    7.00000    6.00000  14.3%   5.4  100s
 1123134  5249    6.00000   76   10    7.00000    6.00000  14.3%   5.3  105s
 1179801  3915 infeasible   77         7.00000    6.00000  14.3%   5.3  110s
 1231642  2718    6.00000   60   12    7.00000    6.00000  14.3%   5.3  115s
 1280045  1094    6.00000   52   18    7.00000    6.00000  14.3%   5.3  120s

Cutting planes:
  Gomory: 6
  MIR: 5
  StrongCG: 2
  Flow cover: 26
  Inf proof: 35
  Zero half: 4

Explored 1304743 nodes (6959727 simplex iterations) in 122.74 seconds
Thread count was 4 (of 4 available processors)

Solution count 3: 7 10 11 

Optimal solution found (tolerance 1.00e-04)
Best objective 7.000000000000e+00, best bound 7.000000000000e+00, gap 0.0000%
